# Solution for model Food_Bank
# Objective value = 5.0151934615463642e+06
x_1_172 1
x_1_62 1
x_1_206 1
x_1_210 1
x_1_33 1
x_1_153 1
x_1_102 1
x_1_151 1
x_1_4 0
x_1_162 1
x_1_53 1
x_1_5 0
x_1_6 1
x_1_222 1
x_1_215 1
x_1_165 1
x_1_30 1
x_1_155 1
x_1_207 1
x_1_196 1
x_1_110 1
x_1_140 1
x_1_25 1
y_172_93 0
y_172_80 0
y_172_68 0
y_172_67 0
y_172_63 1
y_172_92 0
y_172_82 0
y_172_66 0
y_172_56 0
y_172_40 0
y_62_93 0
y_62_80 0
y_62_68 0
y_62_67 0
y_62_63 1
y_62_92 0
y_62_82 0
y_62_66 0
y_62_56 0
y_62_40 0
y_206_93 0
y_206_80 0
y_206_68 0
y_206_67 0
y_206_63 0
y_206_92 0
y_206_82 0
y_206_66 1
y_206_56 0
y_206_40 0
y_210_93 1
y_210_80 0
y_210_68 0
y_210_67 0
y_210_63 0
y_210_92 0
y_210_82 0
y_210_66 0
y_210_56 0
y_210_40 0
y_33_93 0
y_33_80 0
y_33_68 0
y_33_67 1
y_33_63 0
y_33_92 0
y_33_82 0
y_33_66 0
y_33_56 0
y_33_40 0
y_153_93 1
y_153_80 0
y_153_68 0
y_153_67 0
y_153_63 0
y_153_92 0
y_153_82 0
y_153_66 0
y_153_56 0
y_153_40 0
y_102_93 0
y_102_80 1
y_102_68 0
y_102_67 0
y_102_63 0
y_102_92 0
y_102_82 0
y_102_66 0
y_102_56 0
y_102_40 0
y_151_93 0
y_151_80 0
y_151_68 0
y_151_67 0
y_151_63 0
y_151_92 0
y_151_82 0
y_151_66 0
y_151_56 0
y_151_40 1
y_4_93 0
y_4_80 0
y_4_68 0
y_4_67 0
y_4_63 0
y_4_92 0
y_4_82 0
y_4_66 0
y_4_56 0
y_4_40 0
y_162_93 0
y_162_80 0
y_162_68 0
y_162_67 0
y_162_63 0
y_162_92 0
y_162_82 0
y_162_66 0
y_162_56 0
y_162_40 1
y_53_93 0
y_53_80 0
y_53_68 0
y_53_67 0
y_53_63 0
y_53_92 0
y_53_82 0
y_53_66 0
y_53_56 1
y_53_40 0
y_5_93 0
y_5_80 0
y_5_68 0
y_5_67 0
y_5_63 0
y_5_92 0
y_5_82 0
y_5_66 0
y_5_56 0
y_5_40 0
y_6_93 0
y_6_80 0
y_6_68 0
y_6_67 0
y_6_63 0
y_6_92 0
y_6_82 0
y_6_66 0
y_6_56 1
y_6_40 0
y_222_93 0
y_222_80 0
y_222_68 0
y_222_67 1
y_222_63 0
y_222_92 0
y_222_82 0
y_222_66 0
y_222_56 0
y_222_40 0
y_215_93 0
y_215_80 0
y_215_68 0
y_215_67 0
y_215_63 0
y_215_92 0
y_215_82 0
y_215_66 1
y_215_56 0
y_215_40 0
y_165_93 0
y_165_80 0
y_165_68 0
y_165_67 0
y_165_63 0
y_165_92 0
y_165_82 1
y_165_66 0
y_165_56 0
y_165_40 0
y_30_93 0
y_30_80 0
y_30_68 0
y_30_67 0
y_30_63 0
y_30_92 0
y_30_82 1
y_30_66 0
y_30_56 0
y_30_40 0
y_155_93 0
y_155_80 0
y_155_68 0
y_155_67 0
y_155_63 0
y_155_92 0
y_155_82 1
y_155_66 0
y_155_56 0
y_155_40 0
y_207_93 0
y_207_80 0
y_207_68 1
y_207_67 0
y_207_63 0
y_207_92 0
y_207_82 0
y_207_66 0
y_207_56 0
y_207_40 0
y_196_93 0
y_196_80 1
y_196_68 0
y_196_67 0
y_196_63 0
y_196_92 0
y_196_82 0
y_196_66 0
y_196_56 0
y_196_40 0
y_110_93 0
y_110_80 0
y_110_68 1
y_110_67 0
y_110_63 0
y_110_92 0
y_110_82 0
y_110_66 0
y_110_56 0
y_110_40 0
y_140_93 0
y_140_80 0
y_140_68 0
y_140_67 0
y_140_63 0
y_140_92 1
y_140_82 0
y_140_66 0
y_140_56 0
y_140_40 0
y_25_93 0
y_25_80 0
y_25_68 0
y_25_67 0
y_25_63 0
y_25_92 1
y_25_82 0
y_25_66 0
y_25_56 0
y_25_40 0
aFP_1_172 4.6182027700744347e+03
aFP_1_62 5.8046955961647009e+03
aFP_1_206 1.4270998667473209e+03
aFP_1_210 8.8260538259218338e+03
aFP_1_33 3.1776460791169479e+03
aFP_1_153 8.8260538259218356e+03
aFP_1_102 7.5316796943765630e+03
aFP_1_151 5.8452415767019465e+03
aFP_1_4 0
aFP_1_162 5.8452415767068460e+03
aFP_1_53 3.2611584958483031e+03
aFP_1_5 0
aFP_1_6 3.0921766958483554e+03
aFP_1_222 3.5325883707836156e+03
aFP_1_215 1.7651189971821138e+03
aFP_1_165 9.9707849704533437e+03
aFP_1_30 9.9707849704531491e+03
aFP_1_155 9.9707849704608725e+03
aFP_1_207 7.4248927940239755e+03
aFP_1_196 7.5316796943765539e+03
aFP_1_110 7.4248927940501890e+03
aFP_1_140 1612.56219632015
aFP_1_25 2.9802090713220514e+03
aPZ_172_93 0
aPZ_62_93 0
aPZ_206_93 0
aPZ_210_93 8.8260538259218338e+03
aPZ_33_93 0
aPZ_153_93 8.8260538259218356e+03
aPZ_102_93 0
aPZ_151_93 0
aPZ_4_93 0
aPZ_162_93 0
aPZ_53_93 0
aPZ_5_93 0
aPZ_6_93 0
aPZ_222_93 0
aPZ_215_93 0
aPZ_165_93 0
aPZ_30_93 0
aPZ_155_93 0
aPZ_207_93 0
aPZ_196_93 0
aPZ_110_93 0
aPZ_140_93 0
aPZ_25_93 0
aPZ_172_80 0
aPZ_62_80 0
aPZ_206_80 0
aPZ_210_80 0
aPZ_33_80 0
aPZ_153_80 0
aPZ_102_80 7.5316796943765630e+03
aPZ_151_80 0
aPZ_4_80 0
aPZ_162_80 0
aPZ_53_80 0
aPZ_5_80 0
aPZ_6_80 0
aPZ_222_80 0
aPZ_215_80 0
aPZ_165_80 0
aPZ_30_80 0
aPZ_155_80 0
aPZ_207_80 0
aPZ_196_80 7.5316796943765539e+03
aPZ_110_80 0
aPZ_140_80 0
aPZ_25_80 0
aPZ_172_68 0
aPZ_62_68 0
aPZ_206_68 0
aPZ_210_68 0
aPZ_33_68 0
aPZ_153_68 0
aPZ_102_68 0
aPZ_151_68 0
aPZ_4_68 0
aPZ_162_68 0
aPZ_53_68 0
aPZ_5_68 0
aPZ_6_68 0
aPZ_222_68 0
aPZ_215_68 0
aPZ_165_68 0
aPZ_30_68 0
aPZ_155_68 0
aPZ_207_68 7.4248927940239755e+03
aPZ_196_68 0
aPZ_110_68 7.4248927940501890e+03
aPZ_140_68 0
aPZ_25_68 0
aPZ_172_67 0
aPZ_62_67 0
aPZ_206_67 0
aPZ_210_67 0
aPZ_33_67 3.1776460791169479e+03
aPZ_153_67 0
aPZ_102_67 0
aPZ_151_67 0
aPZ_4_67 0
aPZ_162_67 0
aPZ_53_67 0
aPZ_5_67 0
aPZ_6_67 0
aPZ_222_67 3.5325883707836156e+03
aPZ_215_67 0
aPZ_165_67 0
aPZ_30_67 0
aPZ_155_67 0
aPZ_207_67 0
aPZ_196_67 0
aPZ_110_67 0
aPZ_140_67 0
aPZ_25_67 0
aPZ_172_63 4.6182027700744347e+03
aPZ_62_63 5.8046955961647009e+03
aPZ_206_63 0
aPZ_210_63 0
aPZ_33_63 0
aPZ_153_63 0
aPZ_102_63 0
aPZ_151_63 0
aPZ_4_63 0
aPZ_162_63 0
aPZ_53_63 0
aPZ_5_63 0
aPZ_6_63 0
aPZ_222_63 0
aPZ_215_63 0
aPZ_165_63 0
aPZ_30_63 0
aPZ_155_63 0
aPZ_207_63 0
aPZ_196_63 0
aPZ_110_63 0
aPZ_140_63 0
aPZ_25_63 0
aPZ_172_92 0
aPZ_62_92 0
aPZ_206_92 0
aPZ_210_92 0
aPZ_33_92 0
aPZ_153_92 0
aPZ_102_92 0
aPZ_151_92 0
aPZ_4_92 0
aPZ_162_92 0
aPZ_53_92 0
aPZ_5_92 0
aPZ_6_92 0
aPZ_222_92 0
aPZ_215_92 0
aPZ_165_92 0
aPZ_30_92 0
aPZ_155_92 0
aPZ_207_92 0
aPZ_196_92 0
aPZ_110_92 0
aPZ_140_92 1612.56219632015
aPZ_25_92 2.9802090713220514e+03
aPZ_172_82 0
aPZ_62_82 0
aPZ_206_82 0
aPZ_210_82 0
aPZ_33_82 0
aPZ_153_82 0
aPZ_102_82 0
aPZ_151_82 0
aPZ_4_82 0
aPZ_162_82 0
aPZ_53_82 0
aPZ_5_82 0
aPZ_6_82 0
aPZ_222_82 0
aPZ_215_82 0
aPZ_165_82 9.9707849704533437e+03
aPZ_30_82 9.9707849704531491e+03
aPZ_155_82 9.9707849704608725e+03
aPZ_207_82 0
aPZ_196_82 0
aPZ_110_82 0
aPZ_140_82 0
aPZ_25_82 0
aPZ_172_66 0
aPZ_62_66 0
aPZ_206_66 1.4270998667473209e+03
aPZ_210_66 0
aPZ_33_66 0
aPZ_153_66 0
aPZ_102_66 0
aPZ_151_66 0
aPZ_4_66 0
aPZ_162_66 0
aPZ_53_66 0
aPZ_5_66 0
aPZ_6_66 0
aPZ_222_66 0
aPZ_215_66 1.7651189971821138e+03
aPZ_165_66 0
aPZ_30_66 0
aPZ_155_66 0
aPZ_207_66 0
aPZ_196_66 0
aPZ_110_66 0
aPZ_140_66 0
aPZ_25_66 0
aPZ_172_56 0
aPZ_62_56 0
aPZ_206_56 0
aPZ_210_56 0
aPZ_33_56 0
aPZ_153_56 0
aPZ_102_56 0
aPZ_151_56 0
aPZ_4_56 0
aPZ_162_56 0
aPZ_53_56 3.2611584958483031e+03
aPZ_5_56 0
aPZ_6_56 3.0921766958483554e+03
aPZ_222_56 0
aPZ_215_56 0
aPZ_165_56 0
aPZ_30_56 0
aPZ_155_56 0
aPZ_207_56 0
aPZ_196_56 0
aPZ_110_56 0
aPZ_140_56 0
aPZ_25_56 0
aPZ_172_40 0
aPZ_62_40 0
aPZ_206_40 0
aPZ_210_40 0
aPZ_33_40 0
aPZ_153_40 0
aPZ_102_40 0
aPZ_151_40 5.8452415767019465e+03
aPZ_4_40 0
aPZ_162_40 5.8452415767068460e+03
aPZ_53_40 0
aPZ_5_40 0
aPZ_6_40 0
aPZ_222_40 0
aPZ_215_40 0
aPZ_165_40 0
aPZ_30_40 0
aPZ_155_40 0
aPZ_207_40 0
aPZ_196_40 0
aPZ_110_40 0
aPZ_140_40 0
aPZ_25_40 0
nT_1_172 1
nT_1_62 1
nT_1_206 1
nT_1_210 1
nT_1_33 1
nT_1_153 1
nT_1_102 1
nT_1_151 1
nT_1_4 0
nT_1_162 1
nT_1_53 1
nT_1_5 0
nT_1_6 1
nT_1_222 1
nT_1_215 1
nT_1_165 1
nT_1_30 1
nT_1_155 1
nT_1_207 1
nT_1_196 1
nT_1_110 1
nT_1_140 1
nT_1_25 1
ort_1_172 9.2307692307658584e+00
ort_1_62 1.0434782608695638e+01
ort_1_206 9.2307692307644515e+00
ort_1_210 9.2307692307634053e+00
ort_1_33 9.23076923076923
ort_1_153 9.2307692307634248e+00
ort_1_102 9.23076923076507
ort_1_151 9.2307692307641531e+00
ort_1_4 0
ort_1_162 9.2307692307688818e+00
ort_1_53 9.6
ort_1_5 0
ort_1_6 9.2307692307653610e+00
ort_1_222 10
ort_1_215 1.0434782608690909e+01
ort_1_165 9.23076923076923
ort_1_30 9.23076923076632
ort_1_155 9.23076923076923
ort_1_207 9.2307692306780851e+00
ort_1_196 9.2307692307650626e+00
ort_1_110 9.2307692306985043e+00
ort_1_140 9.2307692307612115e+00
ort_1_25 15
opt_1_172 7.1065257589288038e+00
opt_1_62 8.2445478288874021e+00
opt_1_206 7.2394142374270851e+00
opt_1_210 6.8427998728006472e+00
opt_1_33 7.0652202601467158e+00
opt_1_153 6.756133206134
opt_1_102 6.6141852460462420e+00
opt_1_151 6.6985071519290553e+00
opt_1_4 0
opt_1_162 6.6718404852668733e+00
opt_1_53 7.0302754085409180e+00
opt_1_5 0
opt_1_6 6.6428270626396095e+00
opt_1_222 7.3833705814608193e+00
opt_1_215 7.8798599921651373e+00
opt_1_165 6.2522299822465630e+00
opt_1_30 6.2188966489103290e+00
opt_1_155 6.2188966489128532e+00
opt_1_207 6.31285792431022
opt_1_196 6.2941852460462346e+00
opt_1_110 6.2528579243293283e+00
opt_1_140 6.4234744542785371e+00
opt_1_25 1.2057656213100564e+01
dt_172_93 0
dt_172_80 0
dt_172_68 0
dt_172_67 0
dt_172_63 4.5443709695268453e+00
dt_172_92 0
dt_172_82 0
dt_172_66 0
dt_172_56 0
dt_172_40 0
dt_62_93 0
dt_62_80 0
dt_62_68 0
dt_62_67 0
dt_62_63 4.5443709695268453e+00
dt_62_92 0
dt_62_82 0
dt_62_66 0
dt_62_56 0
dt_62_40 0
dt_206_93 0
dt_206_80 0
dt_206_68 0
dt_206_67 0
dt_206_63 0
dt_206_92 0
dt_206_82 0
dt_206_66 4.1474849533607925e+00
dt_206_56 0
dt_206_40 0
dt_210_93 4.4731188390279177e+00
dt_210_80 0
dt_210_68 0
dt_210_67 0
dt_210_63 0
dt_210_92 0
dt_210_82 0
dt_210_66 0
dt_210_56 0
dt_210_40 0
dt_33_93 0
dt_33_80 0
dt_33_68 0
dt_33_67 2.3441761276915090e+00
dt_33_63 0
dt_33_92 0
dt_33_82 0
dt_33_66 0
dt_33_56 0
dt_33_40 0
dt_153_93 4.4731188390279364e+00
dt_153_80 0
dt_153_68 0
dt_153_67 0
dt_153_63 0
dt_153_92 0
dt_153_82 0
dt_153_66 0
dt_153_56 0
dt_153_40 0
dt_102_93 0
dt_102_80 3.8200878930324729e+00
dt_102_68 0
dt_102_67 0
dt_102_63 0
dt_102_92 0
dt_102_82 0
dt_102_66 0
dt_102_56 0
dt_102_40 0
dt_151_93 0
dt_151_80 0
dt_151_68 0
dt_151_67 0
dt_151_63 0
dt_151_92 0
dt_151_82 0
dt_151_66 0
dt_151_56 0
dt_151_40 3.5898345518473898e+00
dt_4_93 0
dt_4_80 0
dt_4_68 0
dt_4_67 0
dt_4_63 0
dt_4_92 0
dt_4_82 0
dt_4_66 0
dt_4_56 0
dt_4_40 0
dt_162_93 0
dt_162_80 0
dt_162_68 0
dt_162_67 0
dt_162_63 0
dt_162_92 0
dt_162_82 0
dt_162_66 0
dt_162_56 0
dt_162_40 3.5898345518473898e+00
dt_53_93 0
dt_53_80 0
dt_53_68 0
dt_53_67 0
dt_53_63 0
dt_53_92 0
dt_53_82 0
dt_53_66 0
dt_53_56 2.4742618435504466e+00
dt_53_40 0
dt_5_93 0
dt_5_80 0
dt_5_68 0
dt_5_67 0
dt_5_63 0
dt_5_92 0
dt_5_82 0
dt_5_66 0
dt_5_56 0
dt_5_40 0
dt_6_93 0
dt_6_80 0
dt_6_68 0
dt_6_67 0
dt_6_63 0
dt_6_92 0
dt_6_82 0
dt_6_66 0
dt_6_56 2.4742618435464623e+00
dt_6_40 0
dt_222_93 0
dt_222_80 0
dt_222_68 0
dt_222_67 2.3441761276915072e+00
dt_222_63 0
dt_222_92 0
dt_222_82 0
dt_222_66 0
dt_222_56 0
dt_222_40 0
dt_215_93 0
dt_215_80 0
dt_215_68 0
dt_215_67 0
dt_215_63 0
dt_215_92 0
dt_215_82 0
dt_215_66 4.1474849533607925e+00
dt_215_56 0
dt_215_40 0
dt_165_93 0
dt_165_80 0
dt_165_68 0
dt_165_67 0
dt_165_63 0
dt_165_92 0
dt_165_82 5.47377473961887
dt_165_66 0
dt_165_56 0
dt_165_40 0
dt_30_93 0
dt_30_80 0
dt_30_68 0
dt_30_67 0
dt_30_63 0
dt_30_92 0
dt_30_82 5.4737747396589045e+00
dt_30_66 0
dt_30_56 0
dt_30_40 0
dt_155_93 0
dt_155_80 0
dt_155_68 0
dt_155_67 0
dt_155_63 0
dt_155_92 0
dt_155_82 5.4737747396589036e+00
dt_155_66 0
dt_155_56 0
dt_155_40 0
dt_207_93 0
dt_207_80 0
dt_207_68 3.4467124779215208e+00
dt_207_67 0
dt_207_63 0
dt_207_92 0
dt_207_82 0
dt_207_66 0
dt_207_56 0
dt_207_40 0
dt_196_93 0
dt_196_80 3.8200878930324729e+00
dt_196_68 0
dt_196_67 0
dt_196_63 0
dt_196_92 0
dt_196_82 0
dt_196_66 0
dt_196_56 0
dt_196_40 0
dt_110_93 0
dt_110_80 0
dt_110_68 3.44671247792152
dt_110_67 0
dt_110_63 0
dt_110_92 0
dt_110_82 0
dt_110_66 0
dt_110_56 0
dt_110_40 0
dt_140_93 0
dt_140_80 0
dt_140_68 0
dt_140_67 0
dt_140_63 0
dt_140_92 2.4283967687113446e+00
dt_140_82 0
dt_140_66 0
dt_140_56 0
dt_140_40 0
dt_25_93 0
dt_25_80 0
dt_25_68 0
dt_25_67 0
dt_25_63 0
dt_25_92 2.4283967687113446e+00
dt_25_82 0
dt_25_66 0
dt_25_56 0
dt_25_40 0
ut_1_172 1.6163709695260522e+00
ut_1_62 2.0316434586576455e+00
ut_1_206 4.9948495336156229e-01
ut_1_210 3.0891188390726416e+00
ut_1_33 1.1121761276909317e+00
ut_1_153 3.0891188390726425e+00
ut_1_102 2.6360878930317972e+00
ut_1_151 2.0458345518456813e+00
ut_1_4 0
ut_1_162 2.0458345518473959e+00
ut_1_53 1.1414054735469061e+00
ut_1_5 0
ut_1_6 1.0822618435469245e+00
ut_1_222 1.2364059297742653e+00
ut_1_215 6.1779164901373984e-01
ut_1_165 3.4897747396586705e+00
ut_1_30 3.4897747396586021e+00
ut_1_155 3.4897747396613052e+00
ut_1_207 2.5987124779083914e+00
ut_1_196 2.6360878930317937e+00
ut_1_110 2.5987124779175663e+00
ut_1_140 5.6439676871205247e-01
ut_1_25 1.0430731749627180e+00
fFP_1_172 26
fFP_1_62 23
fFP_1_206 26
fFP_1_210 26
fFP_1_33 26
fFP_1_153 26
fFP_1_102 26
fFP_1_151 26
fFP_1_4 0
fFP_1_162 26
fFP_1_53 25
fFP_1_5 0
fFP_1_6 26
fFP_1_222 24
fFP_1_215 23
fFP_1_165 26
fFP_1_30 26
fFP_1_155 26
fFP_1_207 26
fFP_1_196 26
fFP_1_110 26
fFP_1_140 26
fFP_1_25 16
dt_93 4.4731188390545515e+00
dt_80 3.8200878930324724e+00
dt_68 3.4467124779215204e+00
dt_67 2.3441757086188040e+00
dt_63 4.5443709695268453e+00
dt_92 2.4283967687113441e+00
dt_82 5.4737747396589036e+00
dt_66 4.1474849533607925e+00
dt_56 2.4742618435464623e+00
dt_40 3.58983455184739
dtt_93 1.1630108981541834e+02
dtt_80 9.9322285217978418e+01
dtt_68 8.9614524425959416e+01
dtt_67 6.0948568424088904e+01
dtt_63 1.1815364520725120e+02
dtt_92 6.3138315986373982e+01
dtt_82 1.4231814323116788e+02
dtt_66 1.0783460878738060e+02
dtt_56 6.4330807931825120e+01
dtt_40 9.3335698347937182e+01
dep_cost 4.8036530726503329e+06
log_cost 2.1154038889603171e+05
ort_y_1_172_93 0
ort_y_1_172_80 0
ort_y_1_172_68 0
ort_y_1_172_67 0
ort_y_1_172_63 9.2307692307658584e+00
ort_y_1_172_92 0
ort_y_1_172_82 0
ort_y_1_172_66 0
ort_y_1_172_56 0
ort_y_1_172_40 0
ort_y_1_62_93 0
ort_y_1_62_80 0
ort_y_1_62_68 0
ort_y_1_62_67 0
ort_y_1_62_63 1.0434782608695638e+01
ort_y_1_62_92 0
ort_y_1_62_82 0
ort_y_1_62_66 0
ort_y_1_62_56 0
ort_y_1_62_40 0
ort_y_1_206_93 0
ort_y_1_206_80 0
ort_y_1_206_68 0
ort_y_1_206_67 0
ort_y_1_206_63 0
ort_y_1_206_92 0
ort_y_1_206_82 0
ort_y_1_206_66 9.2307692307644515e+00
ort_y_1_206_56 0
ort_y_1_206_40 0
ort_y_1_210_93 9.2307692307634053e+00
ort_y_1_210_80 0
ort_y_1_210_68 0
ort_y_1_210_67 0
ort_y_1_210_63 0
ort_y_1_210_92 0
ort_y_1_210_82 0
ort_y_1_210_66 0
ort_y_1_210_56 0
ort_y_1_210_40 0
ort_y_1_33_93 0
ort_y_1_33_80 0
ort_y_1_33_68 0
ort_y_1_33_67 9.23076923076923
ort_y_1_33_63 0
ort_y_1_33_92 0
ort_y_1_33_82 0
ort_y_1_33_66 0
ort_y_1_33_56 0
ort_y_1_33_40 0
ort_y_1_153_93 9.2307692307634248e+00
ort_y_1_153_80 0
ort_y_1_153_68 0
ort_y_1_153_67 0
ort_y_1_153_63 0
ort_y_1_153_92 0
ort_y_1_153_82 0
ort_y_1_153_66 0
ort_y_1_153_56 0
ort_y_1_153_40 0
ort_y_1_102_93 0
ort_y_1_102_80 9.23076923076507
ort_y_1_102_68 0
ort_y_1_102_67 0
ort_y_1_102_63 0
ort_y_1_102_92 0
ort_y_1_102_82 0
ort_y_1_102_66 0
ort_y_1_102_56 0
ort_y_1_102_40 0
ort_y_1_151_93 0
ort_y_1_151_80 0
ort_y_1_151_68 0
ort_y_1_151_67 0
ort_y_1_151_63 0
ort_y_1_151_92 0
ort_y_1_151_82 0
ort_y_1_151_66 0
ort_y_1_151_56 0
ort_y_1_151_40 9.2307692307641531e+00
ort_y_1_4_93 0
ort_y_1_4_80 0
ort_y_1_4_68 0
ort_y_1_4_67 0
ort_y_1_4_63 0
ort_y_1_4_92 0
ort_y_1_4_82 0
ort_y_1_4_66 0
ort_y_1_4_56 0
ort_y_1_4_40 0
ort_y_1_162_93 0
ort_y_1_162_80 0
ort_y_1_162_68 0
ort_y_1_162_67 0
ort_y_1_162_63 0
ort_y_1_162_92 0
ort_y_1_162_82 0
ort_y_1_162_66 0
ort_y_1_162_56 0
ort_y_1_162_40 9.2307692307688818e+00
ort_y_1_53_93 0
ort_y_1_53_80 0
ort_y_1_53_68 0
ort_y_1_53_67 0
ort_y_1_53_63 0
ort_y_1_53_92 0
ort_y_1_53_82 0
ort_y_1_53_66 0
ort_y_1_53_56 9.6
ort_y_1_53_40 0
ort_y_1_5_93 0
ort_y_1_5_80 0
ort_y_1_5_68 0
ort_y_1_5_67 0
ort_y_1_5_63 0
ort_y_1_5_92 0
ort_y_1_5_82 0
ort_y_1_5_66 0
ort_y_1_5_56 0
ort_y_1_5_40 0
ort_y_1_6_93 0
ort_y_1_6_80 0
ort_y_1_6_68 0
ort_y_1_6_67 0
ort_y_1_6_63 0
ort_y_1_6_92 0
ort_y_1_6_82 0
ort_y_1_6_66 0
ort_y_1_6_56 9.2307692307653610e+00
ort_y_1_6_40 0
ort_y_1_222_93 0
ort_y_1_222_80 0
ort_y_1_222_68 0
ort_y_1_222_67 10
ort_y_1_222_63 0
ort_y_1_222_92 0
ort_y_1_222_82 0
ort_y_1_222_66 0
ort_y_1_222_56 0
ort_y_1_222_40 0
ort_y_1_215_93 0
ort_y_1_215_80 0
ort_y_1_215_68 0
ort_y_1_215_67 0
ort_y_1_215_63 0
ort_y_1_215_92 0
ort_y_1_215_82 0
ort_y_1_215_66 1.0434782608690909e+01
ort_y_1_215_56 0
ort_y_1_215_40 0
ort_y_1_165_93 0
ort_y_1_165_80 0
ort_y_1_165_68 0
ort_y_1_165_67 0
ort_y_1_165_63 0
ort_y_1_165_92 0
ort_y_1_165_82 9.23076923072636
ort_y_1_165_66 0
ort_y_1_165_56 0
ort_y_1_165_40 0
ort_y_1_30_93 0
ort_y_1_30_80 0
ort_y_1_30_68 0
ort_y_1_30_67 0
ort_y_1_30_63 0
ort_y_1_30_92 0
ort_y_1_30_82 9.23076923076632
ort_y_1_30_66 0
ort_y_1_30_56 0
ort_y_1_30_40 0
ort_y_1_155_93 0
ort_y_1_155_80 0
ort_y_1_155_68 0
ort_y_1_155_67 0
ort_y_1_155_63 0
ort_y_1_155_92 0
ort_y_1_155_82 9.23076923076923
ort_y_1_155_66 0
ort_y_1_155_56 0
ort_y_1_155_40 0
ort_y_1_207_93 0
ort_y_1_207_80 0
ort_y_1_207_68 9.2307692306780851e+00
ort_y_1_207_67 0
ort_y_1_207_63 0
ort_y_1_207_92 0
ort_y_1_207_82 0
ort_y_1_207_66 0
ort_y_1_207_56 0
ort_y_1_207_40 0
ort_y_1_196_93 0
ort_y_1_196_80 9.2307692307650626e+00
ort_y_1_196_68 0
ort_y_1_196_67 0
ort_y_1_196_63 0
ort_y_1_196_92 0
ort_y_1_196_82 0
ort_y_1_196_66 0
ort_y_1_196_56 0
ort_y_1_196_40 0
ort_y_1_110_93 0
ort_y_1_110_80 0
ort_y_1_110_68 9.2307692306985043e+00
ort_y_1_110_67 0
ort_y_1_110_63 0
ort_y_1_110_92 0
ort_y_1_110_82 0
ort_y_1_110_66 0
ort_y_1_110_56 0
ort_y_1_110_40 0
ort_y_1_140_93 0
ort_y_1_140_80 0
ort_y_1_140_68 0
ort_y_1_140_67 0
ort_y_1_140_63 0
ort_y_1_140_92 9.2307692307612115e+00
ort_y_1_140_82 0
ort_y_1_140_66 0
ort_y_1_140_56 0
ort_y_1_140_40 0
ort_y_1_25_93 0
ort_y_1_25_80 0
ort_y_1_25_68 0
ort_y_1_25_67 0
ort_y_1_25_63 0
ort_y_1_25_92 15
ort_y_1_25_82 0
ort_y_1_25_66 0
ort_y_1_25_56 0
ort_y_1_25_40 0
ut_y_1_172_93 0
ut_y_1_172_80 0
ut_y_1_172_68 0
ut_y_1_172_67 0
ut_y_1_172_63 1.6163709695268640e+00
ut_y_1_172_92 0
ut_y_1_172_82 0
ut_y_1_172_66 0
ut_y_1_172_56 0
ut_y_1_172_40 0
ut_y_1_62_93 0
ut_y_1_62_80 0
ut_y_1_62_68 0
ut_y_1_62_67 0
ut_y_1_62_63 2.0316434586581837e+00
ut_y_1_62_92 0
ut_y_1_62_82 0
ut_y_1_62_66 0
ut_y_1_62_56 0
ut_y_1_62_40 0
ut_y_1_206_93 0
ut_y_1_206_80 0
ut_y_1_206_68 0
ut_y_1_206_67 0
ut_y_1_206_63 0
ut_y_1_206_92 0
ut_y_1_206_82 0
ut_y_1_206_66 4.9948495336084375e-01
ut_y_1_206_56 0
ut_y_1_206_40 0
ut_y_1_210_93 3.0891188390730111e+00
ut_y_1_210_80 0
ut_y_1_210_68 0
ut_y_1_210_67 0
ut_y_1_210_63 0
ut_y_1_210_92 0
ut_y_1_210_82 0
ut_y_1_210_66 0
ut_y_1_210_56 0
ut_y_1_210_40 0
ut_y_1_33_93 0
ut_y_1_33_80 0
ut_y_1_33_68 0
ut_y_1_33_67 1.1121761276915081e+00
ut_y_1_33_63 0
ut_y_1_33_92 0
ut_y_1_33_82 0
ut_y_1_33_66 0
ut_y_1_33_56 0
ut_y_1_33_40 0
ut_y_1_153_93 3.0891188390723134e+00
ut_y_1_153_80 0
ut_y_1_153_68 0
ut_y_1_153_67 0
ut_y_1_153_63 0
ut_y_1_153_92 0
ut_y_1_153_82 0
ut_y_1_153_66 0
ut_y_1_153_56 0
ut_y_1_153_40 0
ut_y_1_102_93 0
ut_y_1_102_80 2.6360878930326295e+00
ut_y_1_102_68 0
ut_y_1_102_67 0
ut_y_1_102_63 0
ut_y_1_102_92 0
ut_y_1_102_82 0
ut_y_1_102_66 0
ut_y_1_102_56 0
ut_y_1_102_40 0
ut_y_1_151_93 0
ut_y_1_151_80 0
ut_y_1_151_68 0
ut_y_1_151_67 0
ut_y_1_151_63 0
ut_y_1_151_92 0
ut_y_1_151_82 0
ut_y_1_151_66 0
ut_y_1_151_56 0
ut_y_1_151_40 2.0458345518449157e+00
ut_y_1_4_93 0
ut_y_1_4_80 0
ut_y_1_4_68 0
ut_y_1_4_67 0
ut_y_1_4_63 0
ut_y_1_4_92 0
ut_y_1_4_82 0
ut_y_1_4_66 0
ut_y_1_4_56 0
ut_y_1_4_40 0
ut_y_1_162_93 0
ut_y_1_162_80 0
ut_y_1_162_68 0
ut_y_1_162_67 0
ut_y_1_162_63 0
ut_y_1_162_92 0
ut_y_1_162_82 0
ut_y_1_162_66 0
ut_y_1_162_56 0
ut_y_1_162_40 2.0458345518481731e+00
ut_y_1_53_93 0
ut_y_1_53_80 0
ut_y_1_53_68 0
ut_y_1_53_67 0
ut_y_1_53_63 0
ut_y_1_53_92 0
ut_y_1_53_82 0
ut_y_1_53_66 0
ut_y_1_53_56 1.1414054735460242e+00
ut_y_1_53_40 0
ut_y_1_5_93 0
ut_y_1_5_80 0
ut_y_1_5_68 0
ut_y_1_5_67 0
ut_y_1_5_63 0
ut_y_1_5_92 0
ut_y_1_5_82 0
ut_y_1_5_66 0
ut_y_1_5_56 0
ut_y_1_5_40 0
ut_y_1_6_93 0
ut_y_1_6_80 0
ut_y_1_6_68 0
ut_y_1_6_67 0
ut_y_1_6_63 0
ut_y_1_6_92 0
ut_y_1_6_82 0
ut_y_1_6_66 0
ut_y_1_6_56 1.0822618435464875e+00
ut_y_1_6_40 0
ut_y_1_222_93 0
ut_y_1_222_80 0
ut_y_1_222_68 0
ut_y_1_222_67 1.2364059297740149e+00
ut_y_1_222_63 0
ut_y_1_222_92 0
ut_y_1_222_82 0
ut_y_1_222_66 0
ut_y_1_222_56 0
ut_y_1_222_40 0
ut_y_1_215_93 0
ut_y_1_215_80 0
ut_y_1_215_68 0
ut_y_1_215_67 0
ut_y_1_215_63 0
ut_y_1_215_92 0
ut_y_1_215_82 0
ut_y_1_215_66 6.1779164901361461e-01
ut_y_1_215_56 0
ut_y_1_215_40 0
ut_y_1_165_93 0
ut_y_1_165_80 0
ut_y_1_165_68 0
ut_y_1_165_67 0
ut_y_1_165_63 0
ut_y_1_165_92 0
ut_y_1_165_82 3.4897747396594530e+00
ut_y_1_165_66 0
ut_y_1_165_56 0
ut_y_1_165_40 0
ut_y_1_30_93 0
ut_y_1_30_80 0
ut_y_1_30_68 0
ut_y_1_30_67 0
ut_y_1_30_63 0
ut_y_1_30_92 0
ut_y_1_30_82 3.4897747396589076e+00
ut_y_1_30_66 0
ut_y_1_30_56 0
ut_y_1_30_40 0
ut_y_1_155_93 0
ut_y_1_155_80 0
ut_y_1_155_68 0
ut_y_1_155_67 0
ut_y_1_155_63 0
ut_y_1_155_92 0
ut_y_1_155_82 3.4897747396609180e+00
ut_y_1_155_66 0
ut_y_1_155_56 0
ut_y_1_155_40 0
ut_y_1_207_93 0
ut_y_1_207_80 0
ut_y_1_207_68 2.598712477909
ut_y_1_207_67 0
ut_y_1_207_63 0
ut_y_1_207_92 0
ut_y_1_207_82 0
ut_y_1_207_66 0
ut_y_1_207_56 0
ut_y_1_207_40 0
ut_y_1_196_93 0
ut_y_1_196_80 2.6360878930324918e+00
ut_y_1_196_68 0
ut_y_1_196_67 0
ut_y_1_196_63 0
ut_y_1_196_92 0
ut_y_1_196_82 0
ut_y_1_196_66 0
ut_y_1_196_56 0
ut_y_1_196_40 0
ut_y_1_110_93 0
ut_y_1_110_80 0
ut_y_1_110_68 2.5987124779169197e+00
ut_y_1_110_67 0
ut_y_1_110_63 0
ut_y_1_110_92 0
ut_y_1_110_82 0
ut_y_1_110_66 0
ut_y_1_110_56 0
ut_y_1_110_40 0
ut_y_1_140_93 0
ut_y_1_140_80 0
ut_y_1_140_68 0
ut_y_1_140_67 0
ut_y_1_140_63 0
ut_y_1_140_92 5.6439676871142985e-01
ut_y_1_140_82 0
ut_y_1_140_66 0
ut_y_1_140_56 0
ut_y_1_140_40 0
ut_y_1_25_93 0
ut_y_1_25_80 0
ut_y_1_25_68 0
ut_y_1_25_67 0
ut_y_1_25_63 0
ut_y_1_25_92 1.0430731749623663e+00
ut_y_1_25_82 0
ut_y_1_25_66 0
ut_y_1_25_56 0
ut_y_1_25_40 0
